(set-info :smt-lib-version 2.6)
(set-logic UFNIA)
(set-info :source |
Generated by: Geoff Sutcliffe
Generated on: 2026-03-11
Generator: TPTPWorld
Application: Benchmarking automated theorem provers
Time limit: 120.0

These benchmarks are translations from the TPTP Library (Thousands of
Problems for Theorem Provers), see http://www.cs.miami.edu/~tptp/

The TPTP is maintained by Geoff Sutcliffe, and he contributed this
selection of benchmarks to SMT-LIB.  They were exported from the
v9.2.1 realease of TPTP.
|)
(set-info :category "industrial")
(set-info :status unknown)
; SZS status Success
(declare-sort $$unsorted 0)

(declare-sort tptp.general 0)
(declare-sort tptp.symbol 0)
(declare-fun tptp.f__integer__ (Int) tptp.general)
(declare-fun tptp.f__symbolic__ (tptp.symbol) tptp.general)
(declare-fun tptp.c__infimum__ () tptp.general)
(declare-fun tptp.c__supremum__ () tptp.general)
(declare-fun tptp.p__is_integer__ (tptp.general) Bool)
(declare-fun tptp.p__is_symbolic__ (tptp.general) Bool)
(declare-fun tptp.p__less_equal__ (tptp.general tptp.general) Bool)
(declare-fun tptp.p__less__ (tptp.general tptp.general) Bool)
(declare-fun tptp.p__greater_equal__ (tptp.general tptp.general) Bool)
(declare-fun tptp.p__greater__ (tptp.general tptp.general) Bool)
(assert (forall ((X tptp.general)) (= (tptp.p__is_integer__ X) (exists ((N Int)) (= X (tptp.f__integer__ N))))))
(assert (forall ((X1 tptp.general)) (= (tptp.p__is_symbolic__ X1) (exists ((X2 tptp.symbol)) (= X1 (tptp.f__symbolic__ X2))))))
(assert (forall ((X tptp.general)) (or (= X tptp.c__infimum__) (tptp.p__is_integer__ X) (tptp.p__is_symbolic__ X) (= X tptp.c__supremum__))))
(assert (forall ((N1 Int) (N2 Int)) (= (= (tptp.f__integer__ N1) (tptp.f__integer__ N2)) (= N1 N2))))
(assert (forall ((S1 tptp.symbol) (S2 tptp.symbol)) (= (= (tptp.f__symbolic__ S1) (tptp.f__symbolic__ S2)) (= S1 S2))))
(assert (forall ((N1 Int) (N2 Int)) (= (tptp.p__less_equal__ (tptp.f__integer__ N1) (tptp.f__integer__ N2)) (<= N1 N2))))
(assert (forall ((X1 tptp.general) (X2 tptp.general)) (=> (and (tptp.p__less_equal__ X1 X2) (tptp.p__less_equal__ X2 X1)) (= X1 X2))))
(assert (forall ((X1 tptp.general) (X2 tptp.general) (X3 tptp.general)) (=> (and (tptp.p__less_equal__ X1 X2) (tptp.p__less_equal__ X2 X3)) (tptp.p__less_equal__ X1 X3))))
(assert (forall ((X1 tptp.general) (X2 tptp.general)) (or (tptp.p__less_equal__ X1 X2) (tptp.p__less_equal__ X2 X1))))
(assert (forall ((X1 tptp.general) (X2 tptp.general)) (= (tptp.p__less__ X1 X2) (and (tptp.p__less_equal__ X1 X2) (not (= X1 X2))))))
(assert (forall ((X1 tptp.general) (X2 tptp.general)) (= (tptp.p__greater_equal__ X1 X2) (tptp.p__less_equal__ X2 X1))))
(assert (forall ((X1 tptp.general) (X2 tptp.general)) (= (tptp.p__greater__ X1 X2) (and (tptp.p__less_equal__ X2 X1) (not (= X1 X2))))))
(assert (forall ((N Int)) (tptp.p__less__ tptp.c__infimum__ (tptp.f__integer__ N))))
(assert (forall ((N Int) (S tptp.symbol)) (tptp.p__less__ (tptp.f__integer__ N) (tptp.f__symbolic__ S))))
(assert (forall ((S tptp.symbol)) (tptp.p__less__ (tptp.f__symbolic__ S) tptp.c__supremum__)))
(declare-fun tptp.composite (tptp.general) Bool)
(declare-fun tptp.sqrtb (tptp.general) Bool)
(declare-fun tptp.composite_p (tptp.general) Bool)
(declare-fun tptp.prime (tptp.general) Bool)
(declare-fun tptp.sqrt (tptp.general tptp.general) Bool)
(declare-fun tptp.a_i () Int)
(declare-fun tptp.b_i () Int)
(assert (> tptp.a_i 1))
(assert (forall ((V1_g tptp.general)) (= (tptp.composite V1_g) (exists ((I_g tptp.general) (J_g tptp.general)) (and (exists ((I1_i Int) (J1_i Int)) (and (= V1_g (tptp.f__integer__ (* I1_i J1_i))) (= (tptp.f__integer__ I1_i) I_g) (= (tptp.f__integer__ J1_i) J_g))) (exists ((Z_g tptp.general) (Z1_g tptp.general)) (and (= Z_g I_g) (exists ((I_i Int) (J_i Int) (K_i Int)) (and (= I_i 2) (= J_i tptp.b_i) (= Z1_g (tptp.f__integer__ K_i)) (<= I_i K_i) (<= K_i J_i))) (= Z_g Z1_g))) (exists ((Z_g tptp.general) (Z1_g tptp.general)) (and (= Z_g J_g) (exists ((I_i Int) (J_i Int) (K_i Int)) (and (= I_i 2) (= J_i tptp.b_i) (= Z1_g (tptp.f__integer__ K_i)) (<= I_i K_i) (<= K_i J_i))) (= Z_g Z1_g))))))))
(assert (forall ((V1_g tptp.general)) (= (tptp.sqrtb V1_g) (exists ((M_g tptp.general)) (and (= V1_g M_g) (exists ((Z_g tptp.general) (Z1_g tptp.general)) (and (= Z_g M_g) (exists ((I_i Int) (J_i Int) (K_i Int)) (and (= I_i 1) (= J_i tptp.b_i) (= Z1_g (tptp.f__integer__ K_i)) (<= I_i K_i) (<= K_i J_i))) (= Z_g Z1_g))) (exists ((Z_g tptp.general) (Z1_g tptp.general)) (and (exists ((I_i Int) (J_i Int)) (and (= Z_g (tptp.f__integer__ (* I_i J_i))) (= (tptp.f__integer__ I_i) M_g) (= (tptp.f__integer__ J_i) M_g))) (= Z1_g (tptp.f__integer__ tptp.b_i)) (tptp.p__less_equal__ Z_g Z1_g))) (exists ((Z_g tptp.general) (Z1_g tptp.general)) (and (exists ((I_i Int) (J_i Int)) (and (= Z_g (tptp.f__integer__ (* I_i J_i))) (exists ((I1_i Int) (J_i Int)) (and (= I_i (+ I1_i J_i)) (= (tptp.f__integer__ I1_i) M_g) (= J_i 1))) (exists ((I_i Int) (J1_i Int)) (and (= J_i (+ I_i J1_i)) (= (tptp.f__integer__ I_i) M_g) (= J1_i 1))))) (= Z1_g (tptp.f__integer__ tptp.b_i)) (tptp.p__greater__ Z_g Z1_g))))))))
(assert (forall ((V1_g tptp.general)) (= (tptp.composite_p V1_g) (exists ((I_g tptp.general) (J_g tptp.general) (M_g tptp.general)) (and (exists ((I1_i Int) (J1_i Int)) (and (= V1_g (tptp.f__integer__ (* I1_i J1_i))) (= (tptp.f__integer__ I1_i) I_g) (= (tptp.f__integer__ J1_i) J_g))) (exists ((Z_g tptp.general)) (and (= Z_g M_g) (tptp.sqrtb Z_g))) (exists ((Z_g tptp.general) (Z1_g tptp.general)) (and (= Z_g I_g) (exists ((I_i Int) (J_i Int) (K_i Int)) (and (= I_i 2) (= (tptp.f__integer__ J_i) M_g) (= Z1_g (tptp.f__integer__ K_i)) (<= I_i K_i) (<= K_i J_i))) (= Z_g Z1_g))) (exists ((Z_g tptp.general) (Z1_g tptp.general)) (and (= Z_g J_g) (exists ((I_i Int) (J_i Int) (K_i Int)) (and (= I_i 2) (= J_i tptp.b_i) (= Z1_g (tptp.f__integer__ K_i)) (<= I_i K_i) (<= K_i J_i))) (= Z_g Z1_g))))))))
(assert (forall ((V1_g tptp.general)) (= (tptp.prime V1_g) (exists ((I_g tptp.general)) (and (= V1_g I_g) (exists ((Z_g tptp.general) (Z1_g tptp.general)) (and (= Z_g I_g) (exists ((I_i Int) (J_i Int) (K_i Int)) (and (= I_i tptp.a_i) (= J_i tptp.b_i) (= Z1_g (tptp.f__integer__ K_i)) (<= I_i K_i) (<= K_i J_i))) (= Z_g Z1_g))) (exists ((Z_g tptp.general)) (and (= Z_g I_g) (not (tptp.composite_p Z_g)))))))))
(assert (forall ((I_i Int) (N_i Int)) (let ((_let_1 (+ I_i 1))) (= (tptp.sqrt (tptp.f__integer__ I_i) (tptp.f__integer__ N_i)) (and (>= I_i 0) (<= (* I_i I_i) N_i) (< N_i (* _let_1 _let_1)))))))
(assert (forall ((I_i Int) (N_i Int)) (let ((_let_1 (+ N_i 1))) (let ((_let_2 (+ I_i 1))) (=> (and (tptp.sqrt (tptp.f__integer__ I_i) (tptp.f__integer__ N_i)) (<= (* _let_2 _let_2) _let_1)) (tptp.sqrt (tptp.f__integer__ _let_2) (tptp.f__integer__ _let_1)))))))
(assert (forall ((N_i Int)) (=> (>= N_i 0) (exists ((I_i Int)) (tptp.sqrt (tptp.f__integer__ I_i) (tptp.f__integer__ N_i))))))
(assert (forall ((I_i Int)) (let ((_let_1 (tptp.f__integer__ I_i))) (=> (>= tptp.b_i 1) (= (tptp.sqrtb _let_1) (tptp.sqrt _let_1 (tptp.f__integer__ tptp.b_i)))))))
(assert (not (forall ((I_i Int) (J_i Int) (N_i Int)) (=> (and (>= I_i 0) (>= J_i 0) (<= (* I_i J_i) tptp.b_i) (tptp.sqrtb (tptp.f__integer__ N_i))) (or (<= I_i N_i) (<= J_i N_i))))))
(check-sat)
(exit)
